
  32    4
  10   10   10   10

   0   0   0   0   0   3 2 4 6 
   2   1   1   1   0   2 10 3 
   3   0   5   3   1   3 13 9 5 
   8   5  10   7   0   2 9 5 
   6   5   5   2   0   3 31 23 7 
   1   2   5   5   0   3 31 23 7 
  10   3   2   8   0   2 17 8 
   4   3   2   6   0   3 19 16 11 
   5   0   2   5   6   6 31 30 27 21 19 15 
   4   0   3   3   4   3 30 18 14 
   6   3   0   5   3   1 12 
   1   3   0   6   4   3 30 26 14 
   9   0   2   2   5   4 30 23 19 18 
   6   9   0   5   3   2 27 15 
   9   0   4   7   5   3 29 28 20 
   8   4   1   3   0   2 27 18 
   4   1   7   0   7   3 25 22 21 
   9   5   5   3   0   3 26 25 22 
   3   6   0   2   7   1 20 
   3   4   4   0   2   2 25 22 
   2   4   3   0   2   2 26 24 
   9   0   6   4   4   1 24 
   3   0   3   2   5   1 26 
   9   5   6   0   3   1 32
   5   2   3   2   0   1 32
   4   3   4   0   5   1 32
   9   0   5   5   6   1 32
   3   0   3   3   2   1 32
   4   4   6   3   0   1 32
   8   7   5   0   2   1 32
   3   5   2   4   0   1 32
   0   0   0   0   0   0 
